(set-logic QF_NRA)
(set-info :source |Benchmarks generated from hycomp (https://es-static.fbk.eu/tools/hycomp/). BMC instances of non-linear hybrid automata taken from: Alessandro Cimatti, Sergio Mover, Stefano Tonetta, A quantifier-free SMT encoding of non-linear hybrid automata, FMCAD 2012 and Alessandro Cimatti, Sergio Mover, Stefano Tonetta, Quantier-free encoding of invariants for Hybrid Systems, Formal Methods in System Design. This instance solves a BMC problem of depth 1 and uses the quantifier free encoding with equivalences encoding. Contacts: Sergio Mover (mover@fbk.eu), Stefano Tonetta (tonettas@fbk.eu), Alessandro Cimatti (cimatti@fbk.eu).|)
(set-info :smt-lib-version 2.0)
(set-info :category "industrial")
(set-info :status unsat)
;; MathSAT API call trace
;; generated on Mon Mar 19 10:37:24 2012
(declare-fun b.x__AT0 () Real)
(declare-fun b.speed_y__AT1 () Real)
(declare-fun b.delta__AT1 () Real)
(declare-fun b.bool_atom__AT0 () Bool)
(declare-fun b.y__AT0 () Real)
(declare-fun b.EVENT.1__AT1 () Bool)
(declare-fun b.EVENT.0__AT1 () Bool)
(declare-fun b.counter.0__AT0 () Bool)
(declare-fun b.delta__AT0 () Real)
(declare-fun b.counter.1__AT0 () Bool)
(declare-fun b.y__AT1 () Real)
(declare-fun b.EVENT.0__AT0 () Bool)
(declare-fun b.speed_y__AT0 () Real)
(declare-fun b.event_is_timed__AT0 () Bool)
(declare-fun b.counter.3__AT0 () Bool)
(declare-fun b.speed_x__AT1 () Real)
(declare-fun b.time__AT1 () Real)
(declare-fun b.x__AT1 () Real)
(declare-fun b.event_is_timed__AT1 () Bool)
(declare-fun b.counter.0__AT1 () Bool)
(declare-fun b.EVENT.1__AT0 () Bool)
(declare-fun b.speed_loss__AT0 () Real)
(declare-fun b.counter.1__AT1 () Bool)
(declare-fun b.speed_x__AT0 () Real)
(declare-fun b.counter.2__AT1 () Bool)
(declare-fun b.time__AT0 () Real)
(declare-fun b.counter.2__AT0 () Bool)
(declare-fun b.counter.3__AT1 () Bool)
(declare-fun b.bool_atom__AT1 () Bool)
(assert (let ((.def_467 (* (- 49.0) b.delta__AT1)))
(let ((.def_468 (* 5.0 b.speed_y__AT1)))
(let ((.def_470 (+ .def_468 .def_467)))
(let ((.def_473 (<= 0.0 .def_470)))
(let ((.def_401 (* b.y__AT1 b.speed_y__AT1)))
(let ((.def_441 (* 2.0 .def_401)))
(let ((.def_442 (+ b.speed_x__AT1 .def_441)))
(let ((.def_446 (<= .def_442 0.0 )))
(let ((.def_474 (and .def_446 .def_473)))
(let ((.def_471 (<= .def_470 0.0 )))
(let ((.def_443 (<= 0.0 .def_442)))
(let ((.def_472 (and .def_443 .def_471)))
(let ((.def_475 (or .def_472 .def_474)))
(let ((.def_390 (* (- (/ 49 10)) b.speed_y__AT1)))
(let ((.def_419 (* 3.0 .def_390)))
(let ((.def_451 (* 2.0 .def_419)))
(let ((.def_452 (* b.delta__AT1 .def_451)))
(let ((.def_453 (* (- 50.0) .def_452)))
(let ((.def_385 (* b.delta__AT1 b.delta__AT1)))
(let ((.def_450 (* (- 7203.0) .def_385)))
(let ((.def_454 (+ .def_450 .def_453)))
(let ((.def_264 (* b.speed_y__AT1 b.speed_y__AT1)))
(let ((.def_455 (* (- 50.0) .def_264)))
(let ((.def_459 (+ .def_455 .def_454)))
(let ((.def_457 (* 490.0 b.y__AT1)))
(let ((.def_460 (+ .def_457 .def_459)))
(let ((.def_463 (<= 0.0 .def_460)))
(let ((.def_464 (and .def_446 .def_463)))
(let ((.def_461 (<= .def_460 0.0 )))
(let ((.def_462 (and .def_443 .def_461)))
(let ((.def_465 (or .def_462 .def_464)))
(let ((.def_397 (* (- (/ 49 10)) b.y__AT1)))
(let ((.def_427 (* 2.0 .def_397)))
(let ((.def_428 (* b.delta__AT1 .def_427)))
(let ((.def_429 (* 50.0 .def_428)))
(let ((.def_423 (* 2.0 .def_264)))
(let ((.def_424 (* b.delta__AT1 .def_423)))
(let ((.def_425 (* 25.0 .def_424)))
(let ((.def_435 (+ .def_425 .def_429)))
(let ((.def_420 (* .def_385 .def_419)))
(let ((.def_421 (* 50.0 .def_420)))
(let ((.def_436 (+ .def_421 .def_435)))
(let ((.def_431 (* 50.0 .def_401)))
(let ((.def_437 (+ .def_431 .def_436)))
(let ((.def_386 (* b.delta__AT1 .def_385)))
(let ((.def_418 (* 2401.0 .def_386)))
(let ((.def_438 (+ .def_418 .def_437)))
(let ((.def_433 (* 25.0 b.speed_x__AT1)))
(let ((.def_439 (+ .def_433 .def_438)))
(let ((.def_445 (<= .def_439 0.0 )))
(let ((.def_447 (and .def_445 .def_446)))
(let ((.def_440 (<= 0.0 .def_439)))
(let ((.def_444 (and .def_440 .def_443)))
(let ((.def_448 (or .def_444 .def_447)))
(let ((.def_402 (* b.delta__AT1 .def_401)))
(let ((.def_403 (* 200.0 .def_402)))
(let ((.def_398 (* .def_385 .def_397)))
(let ((.def_399 (* 200.0 .def_398)))
(let ((.def_409 (+ .def_399 .def_403)))
(let ((.def_394 (* .def_264 .def_385)))
(let ((.def_395 (* 100.0 .def_394)))
(let ((.def_410 (+ .def_395 .def_409)))
(let ((.def_391 (* .def_386 .def_390)))
(let ((.def_392 (* 200.0 .def_391)))
(let ((.def_411 (+ .def_392 .def_410)))
(let ((.def_387 (* b.delta__AT1 .def_386)))
(let ((.def_388 (* 2401.0 .def_387)))
(let ((.def_412 (+ .def_388 .def_411)))
(let ((.def_383 (* b.speed_x__AT1 b.delta__AT1)))
(let ((.def_384 (* 100.0 .def_383)))
(let ((.def_413 (+ .def_384 .def_412)))
(let ((.def_371 (* b.y__AT1 b.y__AT1)))
(let ((.def_405 (* 100.0 .def_371)))
(let ((.def_414 (+ .def_405 .def_413)))
(let ((.def_407 (* 100.0 b.x__AT1)))
(let ((.def_415 (+ .def_407 .def_414)))
(let ((.def_416 (<= 0.0 .def_415)))
(let ((.def_372 (+ b.x__AT1 .def_371)))
(let ((.def_373 (<= 0.0 .def_372)))
(let ((.def_417 (and .def_373 .def_416)))
(let ((.def_449 (and .def_417 .def_448)))
(let ((.def_466 (and .def_449 .def_465)))
(let ((.def_476 (and .def_466 .def_475)))
(let ((.def_67 (<= b.speed_loss__AT0 (/ 1 2))))
(let ((.def_64 (<= (/ 1 10) b.speed_loss__AT0)))
(let ((.def_68 (and .def_64 .def_67)))
(let ((.def_477 (and .def_68 .def_476)))
(let ((.def_37 (not b.counter.0__AT0)))
(let ((.def_377 (or b.counter.1__AT0 .def_37)))
(let ((.def_40 (not b.counter.2__AT0)))
(let ((.def_378 (or .def_40 .def_377)))
(let ((.def_379 (or b.counter.3__AT0 .def_378)))
(let ((.def_374 (and .def_68 .def_373)))
(let ((.def_368 (not b.EVENT.0__AT1)))
(let ((.def_366 (not b.EVENT.1__AT1)))
(let ((.def_369 (or .def_366 .def_368)))
(let ((.def_270 (not b.counter.1__AT1)))
(let ((.def_4 (not b.counter.0__AT1)))
(let ((.def_359 (or .def_4 .def_270)))
(let ((.def_363 (or b.counter.3__AT1 .def_359)))
(let ((.def_360 (or b.counter.2__AT1 .def_359)))
(let ((.def_8 (not b.counter.2__AT1)))
(let ((.def_358 (or .def_4 .def_8)))
(let ((.def_361 (and .def_358 .def_360)))
(let ((.def_287 (not b.counter.3__AT1)))
(let ((.def_362 (or .def_287 .def_361)))
(let ((.def_364 (and .def_362 .def_363)))
(let ((.def_370 (and .def_364 .def_369)))
(let ((.def_375 (and .def_370 .def_374)))
(let ((.def_353 (<= 0.0 b.delta__AT0)))
(let ((.def_56 (not b.EVENT.0__AT0)))
(let ((.def_54 (not b.EVENT.1__AT0)))
(let ((.def_187 (and .def_54 .def_56)))
(let ((.def_189 (not .def_187)))
(let ((.def_354 (or .def_189 .def_353)))
(let ((.def_355 (or b.EVENT.1__AT0 .def_354)))
(let ((.def_229 (= b.bool_atom__AT0 b.bool_atom__AT1)))
(let ((.def_224 (= b.counter.0__AT1 b.counter.0__AT0)))
(let ((.def_222 (= b.counter.1__AT1 b.counter.1__AT0)))
(let ((.def_220 (= b.counter.2__AT1 b.counter.2__AT0)))
(let ((.def_219 (= b.counter.3__AT1 b.counter.3__AT0)))
(let ((.def_221 (and .def_219 .def_220)))
(let ((.def_223 (and .def_221 .def_222)))
(let ((.def_225 (and .def_223 .def_224)))
(let ((.def_349 (and .def_225 .def_229)))
(let ((.def_350 (or .def_189 .def_349)))
(let ((.def_351 (or b.EVENT.1__AT0 .def_350)))
(let ((.def_331 (* b.speed_y__AT0 b.delta__AT0)))
(let ((.def_332 (* 10.0 .def_331)))
(let ((.def_336 (* (- 10.0) b.y__AT1)))
(let ((.def_340 (+ .def_336 .def_332)))
(let ((.def_77 (* b.delta__AT0 b.delta__AT0)))
(let ((.def_333 (* (- 49.0) .def_77)))
(let ((.def_341 (+ .def_333 .def_340)))
(let ((.def_338 (* 10.0 b.y__AT0)))
(let ((.def_342 (+ .def_338 .def_341)))
(let ((.def_343 (= .def_342 0.0 )))
(let ((.def_326 (* (- 5.0) b.speed_y__AT1)))
(let ((.def_174 (* (- 49.0) b.delta__AT0)))
(let ((.def_327 (+ .def_174 .def_326)))
(let ((.def_176 (* 5.0 b.speed_y__AT0)))
(let ((.def_328 (+ .def_176 .def_327)))
(let ((.def_329 (= .def_328 0.0 )))
(let ((.def_321 (* (- 1.0) b.x__AT1)))
(let ((.def_74 (* b.speed_x__AT0 b.delta__AT0)))
(let ((.def_322 (+ .def_74 .def_321)))
(let ((.def_323 (+ b.x__AT0 .def_322)))
(let ((.def_324 (= .def_323 0.0 )))
(let ((.def_330 (and .def_324 .def_329)))
(let ((.def_344 (and .def_330 .def_343)))
(let ((.def_214 (= b.speed_x__AT0 b.speed_x__AT1)))
(let ((.def_345 (and .def_214 .def_344)))
(let ((.def_346 (or .def_189 .def_345)))
(let ((.def_211 (= b.y__AT0 b.y__AT1)))
(let ((.def_208 (= b.x__AT0 b.x__AT1)))
(let ((.def_315 (and .def_208 .def_211)))
(let ((.def_316 (and .def_214 .def_315)))
(let ((.def_217 (= b.speed_y__AT0 b.speed_y__AT1)))
(let ((.def_317 (and .def_217 .def_316)))
(let ((.def_312 (= b.delta__AT0 0.0 )))
(let ((.def_313 (and .def_187 .def_312)))
(let ((.def_314 (not .def_313)))
(let ((.def_318 (or .def_314 .def_317)))
(let ((.def_319 (or b.EVENT.1__AT0 .def_318)))
(let ((.def_304 (and .def_214 .def_217)))
(let ((.def_305 (and .def_225 .def_304)))
(let ((.def_306 (or b.bool_atom__AT0 .def_305)))
(let ((.def_279 (or .def_4 b.counter.0__AT0)))
(let ((.def_278 (or b.counter.0__AT1 .def_37)))
(let ((.def_280 (and .def_278 .def_279)))
(let ((.def_281 (and .def_270 .def_280)))
(let ((.def_282 (or b.counter.1__AT0 .def_281)))
(let ((.def_35 (not b.counter.1__AT0)))
(let ((.def_277 (or b.counter.1__AT1 .def_35)))
(let ((.def_283 (and .def_277 .def_282)))
(let ((.def_295 (and .def_8 .def_283)))
(let ((.def_296 (or b.counter.2__AT0 .def_295)))
(let ((.def_290 (and .def_37 .def_270)))
(let ((.def_291 (or b.counter.1__AT0 .def_290)))
(let ((.def_292 (and .def_277 .def_291)))
(let ((.def_293 (and b.counter.2__AT1 .def_292)))
(let ((.def_294 (or .def_40 .def_293)))
(let ((.def_297 (and .def_294 .def_296)))
(let ((.def_298 (and b.counter.3__AT1 .def_297)))
(let ((.def_299 (or b.counter.3__AT0 .def_298)))
(let ((.def_284 (and b.counter.2__AT1 .def_283)))
(let ((.def_285 (or b.counter.2__AT0 .def_284)))
(let ((.def_273 (or b.counter.1__AT1 b.counter.1__AT0)))
(let ((.def_271 (and b.counter.0__AT1 .def_270)))
(let ((.def_272 (or .def_35 .def_271)))
(let ((.def_274 (and .def_272 .def_273)))
(let ((.def_275 (and .def_8 .def_274)))
(let ((.def_276 (or .def_40 .def_275)))
(let ((.def_286 (and .def_276 .def_285)))
(let ((.def_288 (and .def_286 .def_287)))
(let ((.def_43 (not b.counter.3__AT0)))
(let ((.def_289 (or .def_43 .def_288)))
(let ((.def_300 (and .def_289 .def_299)))
(let ((.def_259 (* b.speed_x__AT0 b.speed_x__AT0)))
(let ((.def_91 (* b.speed_y__AT0 b.speed_y__AT0)))
(let ((.def_260 (+ .def_91 .def_259)))
(let ((.def_245 (* (- 1.0) b.speed_loss__AT0)))
(let ((.def_246 (+ 1.0 .def_245)))
(let ((.def_258 (* .def_246 .def_246)))
(let ((.def_261 (* .def_258 .def_260)))
(let ((.def_262 (* (- 1.0) .def_261)))
(let ((.def_266 (+ .def_262 .def_264)))
(let ((.def_257 (* b.speed_x__AT1 b.speed_x__AT1)))
(let ((.def_267 (+ .def_257 .def_266)))
(let ((.def_268 (= .def_267 0.0 )))
(let ((.def_235 (* 2.0 b.y__AT0)))
(let ((.def_249 (* .def_235 .def_246)))
(let ((.def_250 (* b.speed_y__AT0 .def_249)))
(let ((.def_247 (* b.speed_x__AT0 .def_246)))
(let ((.def_253 (+ .def_247 .def_250)))
(let ((.def_243 (* 2.0 b.y__AT1)))
(let ((.def_244 (* b.speed_y__AT1 .def_243)))
(let ((.def_254 (+ .def_244 .def_253)))
(let ((.def_255 (+ b.speed_x__AT1 .def_254)))
(let ((.def_256 (= .def_255 0.0 )))
(let ((.def_269 (and .def_256 .def_268)))
(let ((.def_301 (and .def_269 .def_300)))
(let ((.def_242 (not b.bool_atom__AT0)))
(let ((.def_302 (or .def_242 .def_301)))
(let ((.def_236 (* b.speed_y__AT0 .def_235)))
(let ((.def_237 (+ b.speed_x__AT0 .def_236)))
(let ((.def_238 (<= 0.0 .def_237)))
(let ((.def_239 (not .def_238)))
(let ((.def_59 (* b.y__AT0 b.y__AT0)))
(let ((.def_60 (+ b.x__AT0 .def_59)))
(let ((.def_234 (= .def_60 0.0 )))
(let ((.def_240 (and .def_234 .def_239)))
(let ((.def_241 (= b.bool_atom__AT0 .def_240)))
(let ((.def_303 (and .def_241 .def_302)))
(let ((.def_307 (and .def_303 .def_306)))
(let ((.def_308 (and .def_208 .def_307)))
(let ((.def_309 (and .def_211 .def_308)))
(let ((.def_310 (or .def_187 .def_309)))
(let ((.def_311 (or b.EVENT.1__AT0 .def_310)))
(let ((.def_320 (and .def_311 .def_319)))
(let ((.def_347 (and .def_320 .def_346)))
(let ((.def_194 (= b.time__AT0 b.time__AT1)))
(let ((.def_209 (and .def_194 .def_208)))
(let ((.def_212 (and .def_209 .def_211)))
(let ((.def_215 (and .def_212 .def_214)))
(let ((.def_218 (and .def_215 .def_217)))
(let ((.def_226 (and .def_218 .def_225)))
(let ((.def_230 (and .def_226 .def_229)))
(let ((.def_231 (or .def_54 .def_230)))
(let ((.def_198 (* (- 1.0) b.time__AT1)))
(let ((.def_201 (+ b.delta__AT0 .def_198)))
(let ((.def_202 (+ b.time__AT0 .def_201)))
(let ((.def_203 (= .def_202 0.0 )))
(let ((.def_204 (or .def_189 .def_203)))
(let ((.def_205 (or b.EVENT.1__AT0 .def_204)))
(let ((.def_195 (or .def_187 .def_194)))
(let ((.def_196 (or b.EVENT.1__AT0 .def_195)))
(let ((.def_206 (and .def_196 .def_205)))
(let ((.def_232 (and .def_206 .def_231)))
(let ((.def_191 (= .def_189 b.event_is_timed__AT1)))
(let ((.def_188 (= b.event_is_timed__AT0 .def_187)))
(let ((.def_192 (and .def_188 .def_191)))
(let ((.def_233 (and .def_192 .def_232)))
(let ((.def_348 (and .def_233 .def_347)))
(let ((.def_352 (and .def_348 .def_351)))
(let ((.def_356 (and .def_352 .def_355)))
(let ((.def_357 (and .def_54 .def_356)))
(let ((.def_376 (and .def_357 .def_375)))
(let ((.def_380 (and .def_376 .def_379)))
(let ((.def_178 (+ .def_176 .def_174)))
(let ((.def_181 (<= 0.0 .def_178)))
(let ((.def_99 (* b.y__AT0 b.speed_y__AT0)))
(let ((.def_142 (* 2.0 .def_99)))
(let ((.def_143 (+ b.speed_x__AT0 .def_142)))
(let ((.def_147 (<= .def_143 0.0 )))
(let ((.def_182 (and .def_147 .def_181)))
(let ((.def_179 (<= .def_178 0.0 )))
(let ((.def_144 (<= 0.0 .def_143)))
(let ((.def_180 (and .def_144 .def_179)))
(let ((.def_183 (or .def_180 .def_182)))
(let ((.def_86 (* (- (/ 49 10)) b.speed_y__AT0)))
(let ((.def_118 (* 3.0 .def_86)))
(let ((.def_154 (* 2.0 .def_118)))
(let ((.def_155 (* b.delta__AT0 .def_154)))
(let ((.def_157 (* (- 50.0) .def_155)))
(let ((.def_159 (* (- 50.0) .def_91)))
(let ((.def_164 (+ .def_159 .def_157)))
(let ((.def_153 (* (- 7203.0) .def_77)))
(let ((.def_165 (+ .def_153 .def_164)))
(let ((.def_162 (* 490.0 b.y__AT0)))
(let ((.def_166 (+ .def_162 .def_165)))
(let ((.def_169 (<= 0.0 .def_166)))
(let ((.def_170 (and .def_147 .def_169)))
(let ((.def_167 (<= .def_166 0.0 )))
(let ((.def_168 (and .def_144 .def_167)))
(let ((.def_171 (or .def_168 .def_170)))
(let ((.def_95 (* (- (/ 49 10)) b.y__AT0)))
(let ((.def_128 (* 2.0 .def_95)))
(let ((.def_129 (* b.delta__AT0 .def_128)))
(let ((.def_130 (* 50.0 .def_129)))
(let ((.def_123 (* 2.0 .def_91)))
(let ((.def_124 (* b.delta__AT0 .def_123)))
(let ((.def_126 (* 25.0 .def_124)))
(let ((.def_136 (+ .def_126 .def_130)))
(let ((.def_119 (* .def_77 .def_118)))
(let ((.def_121 (* 50.0 .def_119)))
(let ((.def_137 (+ .def_121 .def_136)))
(let ((.def_132 (* 50.0 .def_99)))
(let ((.def_138 (+ .def_132 .def_137)))
(let ((.def_78 (* b.delta__AT0 .def_77)))
(let ((.def_116 (* 2401.0 .def_78)))
(let ((.def_139 (+ .def_116 .def_138)))
(let ((.def_134 (* 25.0 b.speed_x__AT0)))
(let ((.def_140 (+ .def_134 .def_139)))
(let ((.def_146 (<= .def_140 0.0 )))
(let ((.def_148 (and .def_146 .def_147)))
(let ((.def_141 (<= 0.0 .def_140)))
(let ((.def_145 (and .def_141 .def_144)))
(let ((.def_149 (or .def_145 .def_148)))
(let ((.def_100 (* b.delta__AT0 .def_99)))
(let ((.def_101 (* 200.0 .def_100)))
(let ((.def_96 (* .def_77 .def_95)))
(let ((.def_97 (* 200.0 .def_96)))
(let ((.def_107 (+ .def_97 .def_101)))
(let ((.def_92 (* .def_77 .def_91)))
(let ((.def_93 (* 100.0 .def_92)))
(let ((.def_108 (+ .def_93 .def_107)))
(let ((.def_87 (* .def_78 .def_86)))
(let ((.def_89 (* 200.0 .def_87)))
(let ((.def_109 (+ .def_89 .def_108)))
(let ((.def_79 (* b.delta__AT0 .def_78)))
(let ((.def_81 (* 2401.0 .def_79)))
(let ((.def_110 (+ .def_81 .def_109)))
(let ((.def_76 (* 100.0 .def_74)))
(let ((.def_111 (+ .def_76 .def_110)))
(let ((.def_103 (* 100.0 .def_59)))
(let ((.def_112 (+ .def_103 .def_111)))
(let ((.def_105 (* 100.0 b.x__AT0)))
(let ((.def_113 (+ .def_105 .def_112)))
(let ((.def_114 (<= 0.0 .def_113)))
(let ((.def_61 (<= 0.0 .def_60)))
(let ((.def_115 (and .def_61 .def_114)))
(let ((.def_150 (and .def_115 .def_149)))
(let ((.def_172 (and .def_150 .def_171)))
(let ((.def_184 (and .def_172 .def_183)))
(let ((.def_185 (and .def_68 .def_184)))
(let ((.def_69 (and .def_61 .def_68)))
(let ((.def_57 (or .def_54 .def_56)))
(let ((.def_47 (or .def_35 .def_37)))
(let ((.def_51 (or b.counter.3__AT0 .def_47)))
(let ((.def_48 (or b.counter.2__AT0 .def_47)))
(let ((.def_46 (or .def_37 .def_40)))
(let ((.def_49 (and .def_46 .def_48)))
(let ((.def_50 (or .def_43 .def_49)))
(let ((.def_52 (and .def_50 .def_51)))
(let ((.def_58 (and .def_52 .def_57)))
(let ((.def_70 (and .def_58 .def_69)))
(let ((.def_38 (and .def_35 .def_37)))
(let ((.def_41 (and .def_38 .def_40)))
(let ((.def_44 (and .def_41 .def_43)))
(let ((.def_32 (= b.speed_y__AT0 1.0 )))
(let ((.def_29 (= b.speed_x__AT0 1.0 )))
(let ((.def_25 (= b.y__AT0 10.0 )))
(let ((.def_21 (= b.x__AT0 (- 9.0) )))
(let ((.def_15 (= b.time__AT0 0.0 )))
(let ((.def_17 (and .def_15 b.event_is_timed__AT0)))
(let ((.def_22 (and .def_17 .def_21)))
(let ((.def_26 (and .def_22 .def_25)))
(let ((.def_30 (and .def_26 .def_29)))
(let ((.def_33 (and .def_30 .def_32)))
(let ((.def_45 (and .def_33 .def_44)))
(let ((.def_71 (and .def_45 .def_70)))
(let ((.def_6 (or .def_4 b.counter.1__AT1)))
(let ((.def_9 (or .def_6 .def_8)))
(let ((.def_11 (or .def_9 b.counter.3__AT1)))
(let ((.def_12 (not .def_11)))
(let ((.def_72 (and .def_12 .def_71)))
(let ((.def_186 (and .def_72 .def_185)))
(let ((.def_381 (and .def_186 .def_380)))
(let ((.def_478 (and .def_381 .def_477)))
.def_478)))))))))))))))))))))))))))))))))))))))))))))))))))))))))))))))))))))))))))))))))))))))))))))))))))))))))))))))))))))))))))))))))))))))))))))))))))))))))))))))))))))))))))))))))))))))))))))))))))))))))))))))))))))))))))))))))))))))))))))))))))))))))))))))))))))))))))))))))))))))))))))))))))))))))))))))))))))))))))))))))))))))))))))))))))))))))))))))))))))))))))))))))))))))))))))
(check-sat)
(exit)
